words_hard_train/9806.qaiger
aag 66 16 0 1 50
2
4
12
14
20
22
42
44
52
54
60
62
70
72
84
86
132
6 3 5
8 2 4
10 7 9
16 12 14
18 11 17
24 20 22
26 21 23
28 25 27
30 29 8
32 19 31
34 7 16
36 35 29
38 37 9
40 32 39
46 43 45
48 42 44
50 47 49
56 52 54
58 51 57
64 60 62
66 59 64
68 40 67
74 70 72
76 71 73
78 75 77
80 79 49
82 68 81
88 85 87
90 53 55
92 91 57
94 89 92
96 61 63
98 96 57
100 99 50
102 95 101
104 51 65
106 97 56
108 104 107
110 102 109
112 13 15
114 113 17
116 74 115
118 77 48
120 119 114
122 117 121
124 84 86
126 125 93
128 123 127
130 110 128
132 82 130
i0 1 x1[6]
i1 2 y1[6]
i2 1 x1[5]
i3 2 y1[5]
i4 1 x1[7]
i5 2 y1[7]
i6 1 x1[3]
i7 2 y1[3]
i8 1 x1[1]
i9 2 y1[1]
i10 1 x1[2]
i11 2 y1[2]
i12 1 x1[4]
i13 2 y1[4]
i14 1 x1[0]
i15 2 y1[0]
o0 bool[0]
c
simplified
  ==
    subtract
      add
        1 x1
        2 y1
      1
    abs
      -135
