words_hard_train/9806.qaiger.qdimacs
p cnf 66 151
a 1 35 6 10 42 21 26 30 0
e 2 3 4 5 7 8 9 11 12 13 14 15 16 17 18 19 20 22 23 24 25 27 28 29 31 32 33 34 36 37 38 39 40 41 43 44 45 46 47 48 49 50 51 52 53 54 55 56 57 58 59 60 61 62 63 64 65 66 0
1 2 3 0
-1 -3 0
-2 -3 0
-1 -2 4 0
1 -4 0
2 -4 0
3 4 5 0
-3 -5 0
-4 -5 0
-6 -7 8 0
6 -8 0
7 -8 0
5 8 9 0
-5 -9 0
-8 -9 0
-10 -11 12 0
10 -12 0
11 -12 0
10 11 13 0
-10 -13 0
-11 -13 0
12 13 14 0
-12 -14 0
-13 -14 0
14 -4 15 0
-14 -15 0
4 -15 0
9 15 16 0
-9 -16 0
-15 -16 0
3 -8 17 0
-3 -17 0
8 -17 0
17 14 18 0
-17 -18 0
-14 -18 0
18 4 19 0
-18 -19 0
-4 -19 0
-16 19 20 0
16 -20 0
-19 -20 0
21 22 23 0
-21 -23 0
-22 -23 0
-21 -22 24 0
21 -24 0
22 -24 0
23 24 25 0
-23 -25 0
-24 -25 0
-26 -27 28 0
26 -28 0
27 -28 0
25 28 29 0
-25 -29 0
-28 -29 0
-30 -31 32 0
30 -32 0
31 -32 0
29 -32 33 0
-29 -33 0
32 -33 0
-20 33 34 0
20 -34 0
-33 -34 0
-35 -36 37 0
35 -37 0
36 -37 0
35 36 38 0
-35 -38 0
-36 -38 0
37 38 39 0
-37 -39 0
-38 -39 0
39 24 40 0
-39 -40 0
-24 -40 0
-34 40 41 0
34 -41 0
-40 -41 0
42 43 44 0
-42 -44 0
-43 -44 0
26 27 45 0
-26 -45 0
-27 -45 0
45 28 46 0
-45 -46 0
-28 -46 0
44 -46 47 0
-44 -47 0
46 -47 0
30 31 48 0
-30 -48 0
-31 -48 0
-48 28 49 0
48 -49 0
-28 -49 0
49 -25 50 0
-49 -50 0
25 -50 0
47 50 51 0
-47 -51 0
-50 -51 0
25 32 52 0
-25 -52 0
-32 -52 0
48 -28 53 0
-48 -53 0
28 -53 0
-52 53 54 0
52 -54 0
-53 -54 0
-51 54 55 0
51 -55 0
-54 -55 0
6 7 56 0
-6 -56 0
-7 -56 0
56 8 57 0
-56 -57 0
-8 -57 0
-37 57 58 0
37 -58 0
-57 -58 0
38 -24 59 0
-38 -59 0
24 -59 0
59 -57 60 0
-59 -60 0
57 -60 0
58 60 61 0
-58 -61 0
-60 -61 0
-42 -43 62 0
42 -62 0
43 -62 0
62 46 63 0
-62 -63 0
-46 -63 0
61 63 64 0
-61 -64 0
-63 -64 0
-55 -64 65 0
55 -65 0
64 -65 0
-41 -65 66 0
41 -66 0
65 -66 0
66 0
